(set-logic HORN)
(declare-fun inv (Int Int Int) Bool)
(assert (forall ((z0 Int) (y0 Int) (x0 Int))
  (=> (and (< x0 0) (> y0 x0) (or (= z0 0) (= z0 1))) (inv x0 y0 z0))))
(assert (forall ((z0 Int) (y1 Int) (x1 Int) (y0 Int) (x0 Int))
  (let ((a!1 (= y1 (ite (= (mod x0 2) z0) (+ y0 2) y0))))
    (=> (and (inv x0 y0 z0) (= x1 (+ x0 1)) a!1) (inv x1 y1 z0)))))
(assert (forall ((y0 Int) (x0 Int) (z0 Int))
  (=> (and (inv x0 y0 z0) (> x0 54932) (> y0 54932)) false)))
(check-sat)
